; benchmark generated from python API
(set-info :status unknown)
(declare-fun S_0 () Real)
(declare-fun A_0 () Real)
(declare-fun L_0 () Real)
(declare-fun L0 () Real)
(declare-fun C () Real)
(declare-fun S_4 () Real)
(declare-fun S_2 () Real)
(declare-fun L_4 () Real)
(declare-fun A_4 () Real)
(declare-fun A_1 () Real)
(declare-fun L_1 () Real)
(declare-fun L_3 () Real)
(declare-fun A_3 () Real)
(declare-fun S_1 () Real)
(declare-fun S_3 () Real)
(declare-fun A_2 () Real)
(declare-fun L_2 () Real)
(assert
 (let (($x37 (>= L0 0.0)))
 (let (($x546 (>= C 5.0)))
 (let (($x10691 (= (+ (* (- 1.0) L_1) A_1 (* 3.0 C) (* (- 1.0) A_4) L_4) 0.0)))
 (let (($x9802 (<= L_1 (+ L_4 (* (- 1.0) A_4) A_1 (* 3.0 C)))))
 (let (($x9755 (not $x9802)))
 (let (($x1912 (not (= L_1 L_3))))
 (let (($x1608 (= L_4 L_1)))
 (let (($x17268 (or $x1608 (>= S_1 (+ A_3 (* (- 2.0) L_1) L_4 (* (- 1.0) A_4) A_1)) $x1912 $x9755 $x10691)))
 (let (($x10541 (<= (+ (* (- 1.0) L_1) (* 2.0 C) (* (- 1.0) A_4) L_4 A_2) 0.0)))
 (let (($x1928 (<= L_1 L_0)))
 (let (($x17691 (or (<= S_0 (+ A_3 (* (- 2.0) L_1) L_4 (* (- 1.0) A_4) A_1)) $x1928)))
 (let ((?x493 (* (- 1.0) A_4)))
 (let ((?x1740 (* (- 2.0) L_1)))
 (let ((?x9098 (+ A_3 ?x1740 L_4 ?x493 A_1 C)))
 (let (($x54 (= L_1 L_0)))
 (let (($x16991 (or $x1608 (<= (+ A_3 ?x1740 L_4 ?x493 A_1) (+ A_0 (* (- 1.0) L_0))) $x9755 (not (>= S_3 (+ A_3 ?x1740 L_4 ?x493 A_1 (* 2.0 C)))) $x10691)))
 (let (($x17426 (or $x1608 $x1912 $x9755 (>= S_0 (+ A_3 ?x1740 L_4 ?x493 A_1 (* (- 1.0) C))) $x10691)))
 (let (($x9471 (<= 0.0 (+ (* 2.0 C) A_2 ?x493))))
 (let (($x3067 (not (= L_2 L_4))))
 (let (($x64 (= L_2 L_1)))
 (let ((?x749 (* 2.0 C)))
 (let ((?x9726 (+ A_3 ?x1740 L_4 ?x493 A_1 ?x749)))
 (let (($x9255 (>= S_3 ?x9726)))
 (let (($x1736 (not (= L_1 L_4))))
 (let ((?x232 (* (- 1.0) S_2)))
 (let ((?x501 (* (- 1.0) A_2)))
 (let ((?x482 (* (- 1.0) L_1)))
 (let ((?x1224 (* (- 2.0) C)))
 (let (($x17245 (or (not (= 0.0 (+ C ?x501 L_2 ?x482 A_1))) (<= (+ ?x1224 ?x482 A_1 L_2 ?x501 ?x232 S_4) 0.0))))
 (let (($x10241 (<= (+ A_2 (* (- 1.0) A_1) (* (- 1.0) C)) 0.0)))
 (let (($x797 (not (= L_1 L_2))))
 (let (($x2432 (= L_4 L_2)))
 (let (($x17328 (or $x64 $x2432 (= (+ ?x1224 L_2 ?x501 A_4 (* (- 1.0) L_4)) 0.0))))
 (let (($x790 (= L_2 L_0)))
 (let (($x571 (not (= L_0 L_1))))
 (let (($x7763 (or $x571 $x790 (<= (+ C A_1 L_2 ?x501 (* (- 1.0) L_0)) 0.0))))
 (let (($x74 (= L_3 L_2)))
 (let (($x36 (>= L_0 L0)))
 (let (($x111 (>= S_1 S_0)))
 (let (($x114 (>= S_2 S_1)))
 (let (($x117 (>= S_3 S_2)))
 (let (($x123 (>= A_2 A_1)))
 (let (($x124 (>= A_3 A_2)))
 (and (<= (+ A_3 (* (- 1.0) L_3)) S_4) (<= (+ A_0 (* (- 1.0) L_0)) S_3) $x124 $x123 $x117 $x114 $x111 $x36 $x74 (<= (+ (* (- 1.0) C) L_0 (* (- 1.0) A_0) S_1) 0.0) (<= (+ C S_1 (* (- 1.0) S_3)) 0.0) (not (<= (+ A_1 ?x482) S_3)) (or $x790 (not (<= 0.0 (+ (* (- 1.0) L_2) L_0)))) $x7763 (or $x1608 (not (<= 0.0 (+ L_1 (* (- 1.0) L_4))))) (or $x54 (<= S_2 ?x9726)) (<= (+ ?x749 S_0 (* (- 1.0) S_3)) 0.0) (or $x54 (not $x1928)) (or (not $x10241) $x64) $x17328 (or $x2432 (not $x9471)) (<= (+ (* (- 3.0) C) (* (- 1.0) S_0) S_2) 0.0) (or $x64 $x1928 (= (+ C ?x501 L_2 ?x482 A_1) 0.0)) (<= (+ C S_0 ?x232) 0.0) (or $x797 $x1928 $x10241) (<= (+ L_2 S_4 ?x493) 0.0) (<= (+ (* (- 5.0) C) (* (- 1.0) S_0) S_4) 0.0) (<= (+ (* (- 4.0) C) (* (- 1.0) A_0) L_0 S_4) 0.0) $x17245 (<= (+ ?x1224 (* (- 1.0) S_3) S_4) 0.0) (<= S_4 (+ A_3 ?x482 C)) (or $x54 $x1736 (<= 0.0 (+ ?x493 A_1 (* 3.0 C)))) (or $x54 $x9802) (or $x1608 $x1912 $x9255 $x9755 $x10691) (<= (+ ?x1224 (* (- 1.0) S_0) S_1) 0.0) (<= (+ ?x1224 (* (- 1.0) A_0) L_0 S_2) 0.0) (<= (+ ?x1224 (* (- 1.0) S_1) S_2) 0.0) (or $x64 $x3067 $x9471) (<= (+ (* (- 4.0) C) (* (- 1.0) S_1) S_4) 0.0) (or $x1608 $x1912 $x9755 (>= S_2 ?x9098) $x10691) $x17426 $x16991 (<= (+ (* (- 4.0) C) (* (- 1.0) S_0) S_3) 0.0) (<= (+ (* (- 3.0) C) (* (- 1.0) A_0) L_0 S_3) 0.0) (or $x54 (<= S_1 ?x9098)) (<= (+ (* (- 3.0) C) (* (- 1.0) S_1) S_3) 0.0) $x17691 (or $x1608 $x1912 $x10541) (<= (+ ?x1224 ?x232 S_3) 0.0) $x17268 (<= (+ (* (- 3.0) C) ?x232 S_4) 0.0) $x546 $x37 (<= (+ L_0 (* (- 1.0) A_0) S_0) 0.0))))))))))))))))))))))))))))))))))))))))))))))
(check-sat)
